
n_res = 4;
rcap = [51, 58, 548, 540];
rtype = [1, 1, 2, 2];
n_tasks = 50;
modes =  [{1, 2, 3, 4, 5, 6}, {7, 8, 9, 10, 11, 12}, {13, 14, 15, 16, 17, 18}, {19, 20, 21, 22, 23, 24}, {25, 26, 27, 28, 29, 30}, {31, 32, 33, 34, 35, 36}, {37, 38, 39, 40, 41, 42}, {43, 44, 45, 46, 47, 48}, {49, 50, 51, 52, 53, 54}, {55, 56, 57, 58, 59, 60}, {61, 62, 63, 64, 65, 66}, {67, 68, 69, 70, 71, 72}, {73, 74, 75, 76, 77, 78}, {79, 80, 81, 82, 83, 84}, {85, 86, 87, 88, 89, 90}, {91, 92, 93, 94, 95, 96}, {97, 98, 99, 100, 101, 102}, {103, 104, 105, 106, 107, 108}, {109, 110, 111, 112, 113, 114}, {115, 116, 117, 118, 119, 120}, {121, 122, 123, 124, 125, 126}, {127, 128, 129, 130, 131, 132}, {133, 134, 135, 136, 137, 138}, {139, 140, 141, 142, 143, 144}, {145, 146, 147, 148, 149, 150}, {151, 152, 153, 154, 155, 156}, {157, 158, 159, 160, 161, 162}, {163, 164, 165, 166, 167, 168}, {169, 170, 171, 172, 173, 174}, {175, 176, 177, 178, 179, 180}, {181, 182, 183, 184, 185, 186}, {187, 188, 189, 190, 191, 192}, {193, 194, 195, 196, 197, 198}, {199, 200, 201, 202, 203, 204}, {205, 206, 207, 208, 209, 210}, {211, 212, 213, 214, 215, 216}, {217, 218, 219, 220, 221, 222}, {223, 224, 225, 226, 227, 228}, {229, 230, 231, 232, 233, 234}, {235, 236, 237, 238, 239, 240}, {241, 242, 243, 244, 245, 246}, {247, 248, 249, 250, 251, 252}, {253, 254, 255, 256, 257, 258}, {259, 260, 261, 262, 263, 264}, {265, 266, 267, 268, 269, 270}, {271, 272, 273, 274, 275, 276}, {277, 278, 279, 280, 281, 282}, {283, 284, 285, 286, 287, 288}, {289, 290, 291, 292, 293, 294}, {295, 296, 297, 298, 299, 300}];
succ =  [{10, 8, 6, 5}, {19, 16, 14, 10, 8, 7}, {18, 16, 11, 10, 6}, {18, 16, 6}, {19, 17, 16, 14, 13}, {19, 17, 14, 13}, {20, 18, 12, 11}, {18, 13, 11}, {19, 17, 13}, {24, 12}, {24, 23, 17}, {27, 23, 17}, {29, 27, 22, 20}, {29, 21, 20}, {29, 22, 19}, {30, 29, 25, 23, 21}, {30, 29, 25, 21}, {30, 29, 25, 21}, {36, 28, 27, 24, 23}, {36, 28, 24, 23}, {26, 22}, {36, 35, 31, 28}, {41, 31, 26}, {41, 30, 26}, {41, 36, 34, 33, 32}, {35, 34, 33, 32}, {41, 38, 37, 34, 33}, {41, 37, 34, 33}, {37, 36, 34, 33}, {49, 38, 34, 33}, {50, 42, 39, 38, 37}, {42, 40, 38, 37}, {50, 48, 42, 40, 39}, {50, 48, 42, 40, 39}, {49, 48, 42, 40}, {50, 49, 39}, {49, 48, 47, 43}, {48, 46, 45, 44}, {44, 43}, {46, 45, 44}, {46, 45, 44}, {47, 46, 45}, {46, 45}, {47}, {}, {}, {}, {}, {}, {}];
n_opt = 300;
dur = [1, 3, 4, 7, 10, 11, 5, 7, 9, 15, 19, 20, 1, 2, 6, 8, 9, 10, 1, 6, 8, 9, 16, 18, 3, 9, 12, 13, 19, 20, 3, 8, 9, 10, 11, 16, 1, 7, 9, 17, 19, 20, 3, 5, 10, 14, 19, 20, 1, 2, 4, 5, 10, 20, 7, 9, 12, 13, 16, 17, 2, 3, 7, 8, 9, 11, 3, 8, 9, 13, 14, 20, 5, 6, 8, 16, 18, 20, 1, 12, 13, 16, 19, 20, 1, 3, 4, 12, 13, 18, 4, 5, 6, 8, 9, 19, 4, 5, 15, 18, 19, 20, 4, 13, 14, 15, 16, 17, 3, 5, 6, 7, 9, 18, 2, 3, 7, 15, 16, 20, 5, 6, 7, 8, 13, 18, 8, 12, 13, 14, 19, 20, 4, 7, 9, 10, 18, 19, 10, 15, 17, 18, 19, 20, 2, 6, 7, 15, 16, 18, 2, 11, 12, 13, 15, 17, 7, 11, 12, 14, 18, 19, 5, 6, 10, 12, 15, 16, 3, 8, 12, 17, 18, 20, 3, 4, 8, 10, 15, 16, 9, 10, 15, 17, 19, 20, 6, 10, 12, 13, 14, 16, 13, 14, 15, 17, 18, 19, 1, 2, 8, 9, 14, 20, 5, 10, 11, 12, 14, 20, 8, 9, 10, 14, 17, 19, 10, 11, 12, 13, 15, 20, 1, 4, 5, 9, 12, 20, 1, 9, 10, 11, 14, 19, 4, 5, 8, 9, 10, 11, 1, 10, 11, 12, 15, 17, 2, 3, 9, 11, 12, 18, 7, 10, 14, 16, 19, 20, 10, 15, 16, 17, 18, 19, 3, 5, 7, 8, 10, 15, 4, 6, 8, 11, 17, 20, 1, 2, 5, 7, 9, 14, 1, 3, 6, 9, 10, 13, 1, 7, 8, 13, 15, 17, 7, 8, 11, 15, 19, 20];
rreq = [|11, 11, 11, 11, 11, 11, 8, 7, 6, 6, 5, 4, 8, 8, 8, 8, 8, 8, 6, 5, 5, 4, 4, 3, 12, 11, 11, 9, 7, 6, 7, 6, 5, 5, 3, 3, 18, 15, 13, 11, 6, 4, 14, 13, 11, 10, 10, 8, 17, 14, 13, 10, 8, 6, 9, 7, 6, 6, 4, 2, 17, 15, 15, 11, 10, 8, 11, 8, 6, 6, 4, 1, 8, 8, 7, 6, 5, 5, 17, 16, 14, 13, 13, 12, 16, 14, 14, 13, 11, 11, 5, 5, 4, 4, 3, 3, 13, 12, 10, 8, 4, 3, 4, 3, 3, 2, 2, 1, 15, 14, 12, 10, 8, 6, 13, 13, 10, 9, 6, 5, 11, 9, 6, 4, 4, 2, 6, 6, 6, 6, 6, 6, 2, 2, 2, 2, 2, 2, 17, 15, 14, 11, 9, 9, 9, 9, 9, 9, 9, 9, 9, 9, 9, 8, 7, 7, 18, 17, 16, 16, 14, 14, 11, 10, 8, 7, 3, 2, 13, 12, 12, 12, 12, 12, 12, 11, 10, 10, 9, 9, 18, 16, 15, 14, 14, 13, 10, 9, 9, 8, 8, 8, 14, 12, 12, 11, 10, 9, 15, 14, 14, 14, 14, 14, 17, 13, 13, 11, 7, 7, 9, 7, 7, 5, 4, 3, 7, 7, 6, 5, 2, 1, 16, 16, 15, 14, 14, 13, 10, 10, 8, 7, 6, 3, 15, 15, 15, 15, 15, 15, 4, 3, 2, 2, 2, 1, 11, 11, 10, 9, 9, 8, 10, 8, 8, 8, 6, 6, 12, 9, 8, 5, 3, 2, 14, 11, 10, 9, 3, 3, 16, 15, 15, 14, 14, 14, 17, 16, 16, 15, 15, 14, 15, 15, 15, 15, 15, 15, 15, 15, 13, 10, 9, 7, 18, 16, 14, 13, 9, 7
 |16, 16, 14, 14, 13, 12, 12, 11, 10, 10, 9, 8, 16, 15, 14, 13, 12, 11, 5, 4, 3, 3, 3, 2, 4, 3, 2, 2, 2, 1, 14, 14, 11, 10, 7, 6, 15, 14, 14, 14, 13, 12, 13, 11, 11, 8, 7, 5, 11, 8, 6, 5, 5, 2, 14, 12, 12, 9, 7, 5, 18, 17, 17, 16, 16, 15, 16, 15, 13, 12, 10, 10, 16, 14, 12, 11, 8, 8, 18, 18, 18, 18, 18, 18, 13, 11, 9, 8, 5, 4, 17, 14, 13, 8, 6, 5, 10, 10, 10, 10, 10, 10, 8, 8, 8, 8, 8, 8, 19, 19, 18, 16, 16, 15, 7, 6, 5, 5, 4, 3, 7, 7, 7, 6, 5, 5, 11, 11, 11, 11, 10, 10, 13, 12, 11, 9, 8, 8, 16, 14, 13, 12, 11, 11, 6, 5, 4, 4, 3, 2, 20, 18, 15, 13, 11, 9, 17, 15, 15, 14, 13, 13, 15, 14, 12, 9, 8, 5, 14, 12, 11, 10, 8, 7, 14, 13, 11, 11, 10, 9, 20, 19, 19, 18, 18, 18, 9, 8, 8, 5, 4, 3, 7, 7, 7, 7, 7, 7, 17, 15, 13, 11, 10, 7, 7, 7, 7, 7, 7, 7, 5, 5, 5, 5, 5, 5, 17, 13, 11, 10, 6, 6, 8, 8, 8, 8, 8, 8, 16, 14, 12, 11, 9, 8, 11, 9, 9, 8, 7, 7, 15, 12, 10, 9, 7, 6, 20, 16, 14, 10, 6, 4, 5, 4, 4, 4, 4, 4, 9, 9, 7, 6, 5, 3, 20, 18, 17, 16, 16, 15, 13, 12, 11, 8, 5, 1, 16, 15, 15, 15, 15, 15, 13, 10, 8, 6, 4, 2, 4, 4, 4, 3, 2, 2, 4, 4, 4, 4, 4, 4
 |13, 12, 11, 9, 9, 8, 18, 15, 15, 12, 10, 7, 16, 15, 12, 9, 8, 5, 16, 16, 15, 15, 14, 13, 6, 5, 5, 5, 4, 4, 13, 11, 10, 8, 4, 3, 6, 6, 6, 6, 6, 6, 6, 4, 4, 4, 2, 2, 12, 9, 8, 6, 3, 3, 12, 12, 12, 11, 11, 11, 10, 9, 7, 6, 6, 4, 15, 14, 12, 11, 10, 10, 7, 5, 4, 3, 2, 2, 16, 15, 12, 12, 10, 7, 19, 18, 17, 16, 16, 15, 12, 10, 8, 6, 3, 3, 18, 16, 16, 15, 14, 13, 19, 18, 16, 13, 10, 8, 16, 15, 14, 14, 13, 12, 14, 14, 12, 11, 10, 10, 11, 9, 8, 5, 5, 4, 5, 3, 3, 3, 2, 1, 13, 13, 13, 13, 13, 13, 18, 16, 15, 14, 14, 13, 19, 18, 17, 17, 15, 14, 13, 12, 11, 9, 8, 8, 15, 14, 13, 13, 13, 12, 18, 16, 13, 9, 6, 5, 14, 14, 14, 14, 14, 14, 16, 15, 14, 11, 9, 9, 3, 3, 3, 3, 3, 3, 16, 15, 12, 11, 9, 8, 10, 10, 9, 8, 7, 6, 9, 8, 8, 7, 7, 7, 18, 17, 16, 16, 15, 15, 16, 14, 11, 11, 8, 8, 14, 14, 12, 12, 10, 10, 17, 17, 17, 17, 17, 17, 8, 6, 5, 4, 4, 3, 13, 12, 10, 8, 8, 6, 12, 11, 10, 9, 8, 8, 19, 18, 17, 17, 16, 16, 19, 19, 19, 19, 19, 19, 6, 5, 4, 3, 3, 2, 18, 17, 16, 16, 16, 15, 17, 14, 14, 11, 7, 4, 17, 17, 17, 17, 16, 16, 14, 14, 14, 14, 14, 14, 10, 9, 9, 9, 9, 9, 7, 5, 5, 4, 4, 3
 |6, 6, 6, 6, 6, 6, 10, 10, 9, 8, 8, 7, 17, 14, 13, 12, 11, 8, 17, 17, 17, 17, 17, 17, 16, 14, 13, 10, 9, 8, 15, 12, 12, 11, 9, 9, 7, 5, 4, 4, 3, 2, 5, 5, 5, 5, 5, 5, 17, 16, 14, 14, 13, 12, 14, 12, 11, 11, 9, 9, 12, 12, 8, 8, 6, 3, 18, 15, 13, 10, 6, 3, 5, 4, 4, 4, 3, 2, 13, 12, 12, 9, 8, 8, 19, 19, 18, 18, 17, 17, 13, 10, 8, 6, 6, 2, 16, 15, 14, 10, 10, 6, 20, 17, 15, 11, 9, 7, 15, 12, 10, 10, 7, 5, 15, 15, 15, 14, 14, 14, 15, 14, 14, 14, 14, 14, 15, 14, 12, 11, 10, 10, 7, 7, 7, 7, 7, 6, 17, 14, 14, 12, 11, 11, 16, 14, 13, 11, 10, 9, 15, 14, 14, 14, 13, 13, 10, 9, 9, 9, 9, 9, 17, 17, 14, 14, 12, 11, 18, 17, 17, 17, 16, 16, 16, 14, 13, 9, 6, 5, 17, 17, 17, 17, 16, 17, 16, 13, 12, 11, 8, 7, 19, 19, 19, 19, 19, 19, 14, 12, 10, 9, 7, 5, 17, 17, 12, 10, 8, 6, 3, 3, 2, 2, 2, 1, 15, 13, 11, 10, 10, 8, 5, 4, 5, 5, 4, 5, 9, 9, 7, 7, 5, 4, 12, 11, 8, 8, 5, 3, 19, 16, 16, 15, 14, 12, 17, 15, 11, 11, 7, 6, 4, 3, 2, 1, 2, 1, 9, 7, 7, 7, 5, 5, 13, 13, 13, 13, 13, 13, 14, 14, 14, 14, 14, 14, 18, 17, 16, 16, 14, 14, 14, 14, 13, 10, 10, 8, 12, 11, 8, 6, 5, 3, 9, 9, 8, 5, 4, 2|];